r = [
0,12,39,15,12,26,3,33,36,17,17,27,10,42,12,45,1,25,39,17,28,45,46,11,17,33,0
];
p = [
0,25,17,12,25,3,26,12,1,29,30,27,25,4,21,15,24,20,6,30,23,25,5,12,8,30,0
];
e = [
0,13,13,9,4,12,16,9,12,1,8,5,2,4,19,3,8,12,1,5,3,10,16,13,13,14,0
];
d = [
0,419,449,445,420,449,412,443,467,409,404,435,397,472,420,458,395,434,446,435,436,433,435,417,445,433,473
];
d_bar = [
0,422,451,446,423,450,415,444,468,412,407,438,400,473,422,460,397,436,447,438,438,436,436,418,446,436,473
];
w = [
0,4.333333333,6.5,9,1.333333333,12,5.333333333,9,12,0.333333333,2.666666667,1.666666667,0.666666667,4,9.5,1.5,4,6,1,1.666666667,1.5,3.333333333,16,13,13,4.666666667,0
];
